50, 8513
234, 108
468, 216
53, 80
312, 144
477, 720
780, 360
780, 360
78, 36
265, 400
265, 400
624, 288
106, 160
468, 216
159, 240
212, 320
312, 144
106, 160
424, 640
106, 160
546, 252
371, 560
159, 240
318, 480
624, 288
318, 480
318, 480
156, 72
106, 160
424, 640
312, 144
530, 800
371, 560
424, 640
53, 80
371, 560
312, 144
702, 324
390, 180
106, 160
212, 320
53, 80
530, 800
312, 144
624, 288
530, 800
159, 240
312, 144
234, 108
312, 144
780, 360
